10	5
0	5	1	3	2	4	5
1	3	9	8	7
2	2	10	7
3	4	7	10	8	9
4	3	6	8	7
5	3	9	8	7
6	1	9
7	1	11
8	1	11
9	1	11
10	1	11
11	0
0	0	0	0	0	0	0
1	10	2	3	3	2	1
2	6	5	5	3	5	2
3	4	4	4	4	2	2
4	4	5	2	3	1	5
5	5	2	3	5	2	3
6	1	2	5	3	5	4
7	1	2	2	3	5	3
8	6	2	4	5	2	1
9	2	5	2	3	4	3
10	9	3	4	1	4	4
11	0	0	0	0	0	0
13	14	13	11	11
